Academic license - for non-commercial use only - expires 2022-11-10
Using license file /home/benedond/Apps/gurobi/gurobi950/gurobi.lic
Using gurobi.env file
Set parameter Threads to value 1
Changed value of parameter TimeLimit to 1200.0
   Prev: inf  Min: 0.0  Max: inf  Default: inf
Gurobi Optimizer version 9.1.2 build v9.1.2rc0 (linux64)
Thread count: 2 physical cores, 4 logical processors, using up to 1 threads
Optimize a model with 1191 rows, 1080 columns and 5140 nonzeros
Model fingerprint: 0xbd1f535e
Variable types: 44 continuous, 1036 integer (1036 binary)
Coefficient statistics:
  Matrix range     [2e-01, 5e+02]
  Objective range  [2e-02, 4e-01]
  Bounds range     [1e+00, 1e+00]
  RHS range        [1e+00, 1e+03]
Presolve removed 286 rows and 76 columns
Presolve time: 0.04s
Presolved: 905 rows, 1004 columns, 4510 nonzeros
Variable types: 43 continuous, 961 integer (961 binary)

Root relaxation: objective 2.450032e+00, 824 iterations, 0.01 seconds

    Nodes    |    Current Node    |     Objective Bounds      |     Work
 Expl Unexpl |  Obj  Depth IntInf | Incumbent    BestBd   Gap | It/Node Time

     0     0    2.45003    0   90          -    2.45003      -     -    0s
     0     0    2.61609    0   78          -    2.61609      -     -    0s
     0     0    2.66754    0   83          -    2.66754      -     -    0s
     0     0    2.75933    0   80          -    2.75933      -     -    0s
     0     0    2.77787    0   90          -    2.77787      -     -    0s
     0     0    2.78051    0   84          -    2.78051      -     -    0s
     0     0    2.78393    0   82          -    2.78393      -     -    0s
     0     0    2.78487    0   97          -    2.78487      -     -    0s
     0     0    2.78587    0   86          -    2.78587      -     -    0s
     0     0    2.78588    0   87          -    2.78588      -     -    0s
     0     0    2.89984    0   99          -    2.89984      -     -    0s
H    0     0                       5.0334538    2.89984  42.4%     -    0s
H    0     0                       3.9206667    2.89984  26.0%     -    0s
     0     0    2.92698    0  105    3.92067    2.92698  25.3%     -    0s
     0     0    2.92920    0   87    3.92067    2.92920  25.3%     -    0s
     0     0    2.92930    0   89    3.92067    2.92930  25.3%     -    0s
     0     0    2.97429    0  135    3.92067    2.97429  24.1%     -    0s
     0     0    2.99153    0  104    3.92067    2.99153  23.7%     -    0s
     0     0    2.99241    0  104    3.92067    2.99241  23.7%     -    0s
     0     0    2.99262    0  103    3.92067    2.99262  23.7%     -    0s
     0     0    3.01560    0  138    3.92067    3.01560  23.1%     -    0s
     0     0    3.02326    0  141    3.92067    3.02326  22.9%     -    0s
     0     0    3.02365    0  141    3.92067    3.02365  22.9%     -    0s
     0     0    3.03818    0  157    3.92067    3.03818  22.5%     -    0s
     0     0    3.04517    0  128    3.92067    3.04517  22.3%     -    0s
     0     0    3.05254    0  149    3.92067    3.05254  22.1%     -    0s
     0     0    3.05339    0  141    3.92067    3.05339  22.1%     -    0s
     0     0    3.05339    0  141    3.92067    3.05339  22.1%     -    0s
     0     0    3.06748    0  153    3.92067    3.06748  21.8%     -    0s
     0     0    3.07047    0  149    3.92067    3.07047  21.7%     -    0s
     0     0    3.07085    0  163    3.92067    3.07085  21.7%     -    0s
     0     0    3.08328    0  177    3.92067    3.08328  21.4%     -    0s
     0     0    3.08512    0  167    3.92067    3.08512  21.3%     -    0s
     0     0    3.08548    0  160    3.92067    3.08548  21.3%     -    0s
     0     0    3.09586    0  144    3.92067    3.09586  21.0%     -    0s
     0     0    3.09880    0  129    3.92067    3.09880  21.0%     -    0s
     0     0    3.09911    0  132    3.92067    3.09911  21.0%     -    0s
     0     0    3.10108    0  150    3.92067    3.10108  20.9%     -    0s
     0     0    3.10108    0  150    3.92067    3.10108  20.9%     -    0s
H    0     0                       3.7666111    3.10194  17.6%     -    0s
     0     2    3.10194    0  150    3.76661    3.10194  17.6%     -    0s
H   26    26                       3.7126018    3.10735  16.3%   163    1s
H  104    91                       3.6953704    3.11749  15.6%  97.7    1s
H  156   137                       3.6914537    3.11749  15.5%  88.2    1s
H  416   324                       3.6884167    3.13040  15.1%  71.5    2s
H  522   384                       3.6455926    3.14398  13.8%  68.9    4s
   566   414    3.17140   12  185    3.64559    3.16541  13.2%  63.5    5s
H  586   404                       3.6282685    3.17697  12.4%  74.5    6s
H  623   404                       3.5795648    3.18863  10.9%  82.0    8s
H  639   386                       3.4967407    3.18863  8.81%  84.4    8s
H  665   368                       3.4896667    3.18863  8.63%  85.2    8s
   831   351    3.45501   20   75    3.48967    3.21711  7.81%  88.8   10s
H 1299   354                       3.4688796    3.27420  5.61%  87.3   13s
H 1422   322                       3.4604722    3.28413  5.10%  89.0   14s
  1452   319    3.32973   21  122    3.46047    3.28675  5.02%  88.6   15s
  2258   520    3.33133   37   97    3.46047    3.31927  4.08%  85.6   20s
H 2850   466                       3.4207500    3.34336  2.26%  86.7   24s
  2972   449     cutoff   40         3.42075    3.35162  2.02%  86.7   25s

Cutting planes:
  Cover: 24
  Implied bound: 10
  Clique: 7
  MIR: 141
  StrongCG: 2
  Flow cover: 342
  GUB cover: 2
  RLT: 15
  Relax-and-lift: 154

Explored 3738 nodes (312072 simplex iterations) in 28.44 seconds
Thread count was 1 (of 4 available processors)

Solution count 10: 3.42075 3.46047 3.46888 ... 3.69145

Optimal solution found (tolerance 1.00e-04)
Best objective 3.420749979243e+00, best bound 3.420555821571e+00, gap 0.0057%
